
Gurobi 12.0.3 (linux64) logging started Wed Dec 10 14:52:10 2025

Set parameter LogFile to value "/home/bazzo/Scrivania/fjsp_rescheduling/simulations/logs/EX5/gurobi_exp5.log"
Set parameter OutputFlag to value 1
Gurobi Optimizer version 12.0.3 build v12.0.3rc0 (linux64 - "Ubuntu 22.04.5 LTS")

CPU model: Intel(R) Xeon(R) W-2145 CPU @ 3.70GHz, instruction set [SSE2|AVX|AVX2|AVX512]
Thread count: 8 physical cores, 16 logical processors, using up to 16 threads

Optimize a model with 63161 rows, 4343 columns and 312309 nonzeros
Model fingerprint: 0x5385fde3
Model has 15 quadratic constraints
Coefficient statistics:
  Matrix range     [1e+00, 7e+02]
  QMatrix range    [1e+00, 1e+00]
  QLMatrix range   [1e+00, 1e+00]
  Objective range  [0e+00, 0e+00]
  Bounds range     [1e+00, 1e+00]
  RHS range        [1e+00, 2e+03]
Presolve removed 30000 rows and 2059 columns
Presolve time: 0.05s
Presolved: 33191 rows, 2329 columns, 164789 nonzeros
Presolved model has 15 second-order cone constraints
Ordering time: 0.04s

Barrier statistics:
 Dense cols : 430
 AA' NZ     : 4.092e+05
 Factor NZ  : 1.057e+06 (roughly 23 MB of memory)
 Factor Ops : 5.582e+07 (less than 1 second per iteration)
 Threads    : 8

                  Objective                Residual
Iter       Primal          Dual         Primal    Dual     Compl     Time
   0   0.00000000e+00 -5.85345038e+03  1.05e+03 1.00e-01  1.58e+01     0s
   1   0.00000000e+00 -8.20376941e+04  1.56e+02 2.74e+00  3.35e+00     0s
   2   0.00000000e+00 -2.34260489e+04  5.58e+01 6.46e-01  7.57e-01     0s
   3   0.00000000e+00 -1.54654726e+04  1.69e+01 4.40e-01  4.51e-01     0s
   4   0.00000000e+00 -4.62232446e+03  1.43e+00 1.33e-01  1.29e-01     0s
   5   0.00000000e+00 -2.26436905e+02  6.92e-02 8.21e-03  6.28e-03     0s
   6   0.00000000e+00 -9.61969472e+00  7.61e-08 3.47e-04  2.67e-04     0s
   7   0.00000000e+00 -8.56617080e+00  7.19e-08 3.08e-04  2.37e-04     0s
   8   0.00000000e+00 -6.17520236e+00  3.17e-08 2.53e-04  1.71e-04     0s
   9   0.00000000e+00 -4.29186076e+00  6.03e-10 1.76e-04  1.18e-04     0s
  10   0.00000000e+00 -3.60669981e-01  1.33e-09 1.30e-05  9.97e-06     0s
  11   0.00000000e+00 -3.27977041e-01  6.20e-10 2.93e-05  9.06e-06     1s
  12   0.00000000e+00 -1.12850565e-03  1.20e-09 8.48e-07  3.20e-08     1s
  13   0.00000000e+00 -1.09618682e-04  6.94e-10 1.13e-06  9.39e-11     1s
  14   0.00000000e+00  6.58193112e-06  1.23e-09 7.71e-06  8.79e-11     1s
  15   0.00000000e+00 -7.33763575e-04  6.26e-10 9.25e-06  8.60e-11     1s
  16   0.00000000e+00 -1.57878400e-03  6.03e-10 1.53e-05  8.60e-11     1s
  17   0.00000000e+00 -4.36427918e-04  6.05e-10 1.53e-05  8.60e-11     1s
  18   0.00000000e+00  9.80920881e-04  6.04e-10 1.72e-05  8.60e-11     1s
  19   0.00000000e+00  1.12591616e-03  6.05e-10 3.12e-05  8.60e-11     1s
  20   0.00000000e+00  9.68191635e-04  6.04e-10 2.85e-05  8.60e-11     1s
  21   0.00000000e+00  8.58191667e-04  6.02e-10 2.85e-05  8.60e-11     1s
  22   0.00000000e+00  1.51457553e-03  5.95e-10 3.28e-05  8.60e-11     1s
  23   0.00000000e+00  1.17913318e-04  5.95e-10 6.46e-05  8.60e-11     1s
  24   0.00000000e+00 -4.28475012e-03  5.95e-10 1.01e-04  8.60e-11     1s
  25   0.00000000e+00  4.06678469e-03  5.95e-10 7.51e-05  8.60e-11     1s
  26   0.00000000e+00  1.37217229e-02  5.95e-10 1.27e-04  8.60e-11     1s
  27   0.00000000e+00  2.56498389e-02  5.95e-10 3.00e-04  8.60e-11     1s
  28   0.00000000e+00  2.55597944e-02  5.93e-10 2.99e-04  8.60e-11     1s
  29   0.00000000e+00  3.22740119e-02  5.94e-10 3.03e-04  8.60e-11     1s
  30   0.00000000e+00  3.11313412e-02  5.94e-10 3.05e-04  8.60e-11     1s
  31   0.00000000e+00  3.03593614e-02  6.00e-10 3.05e-04  8.60e-11     1s
  32   0.00000000e+00  4.28661930e-02  5.99e-10 2.70e-04  8.60e-11     1s
  33   0.00000000e+00  3.64638063e-02  6.00e-10 3.02e-04  8.60e-11     1s
  34   0.00000000e+00  3.60160247e-02  5.99e-10 3.02e-04  8.60e-11     1s
  35   0.00000000e+00  3.53714020e-02  6.04e-10 3.03e-04  8.60e-11     1s

Barrier solved model in 35 iterations and 1.15 seconds (1.64 work units)
Optimal objective 0.00000000e+00

Set parameter TimeLimit to value 2160
Set parameter Presolve to value 2
Set parameter MIPFocus to value 3
Set parameter Heuristics to value 0.1
Set parameter ImproveStartGap to value 0.5
Set parameter Presolve to value 2
Gurobi Optimizer version 12.0.3 build v12.0.3rc0 (linux64 - "Ubuntu 22.04.5 LTS")

CPU model: Intel(R) Xeon(R) W-2145 CPU @ 3.70GHz, instruction set [SSE2|AVX|AVX2|AVX512]
Thread count: 8 physical cores, 16 logical processors, using up to 16 threads

Non-default parameters:
TimeLimit  2160
Heuristics  0.1
MIPFocus  3
Presolve  2
ImproveStartGap  0.5

Optimize a model with 63161 rows, 4343 columns and 312309 nonzeros
Model fingerprint: 0xc22c04f8
Model has 15 quadratic constraints
Variable types: 15 continuous, 4328 integer (4200 binary)
Coefficient statistics:
  Matrix range     [1e+00, 7e+02]
  QMatrix range    [1e+00, 1e+00]
  QLMatrix range   [1e+00, 1e+00]
  Objective range  [1e+00, 1e+00]
  Bounds range     [1e+00, 1e+00]
  RHS range        [1e+00, 2e+03]
Presolve removed 30577 rows and 2077 columns
Presolve time: 1.48s
Presolved: 32584 rows, 2266 columns, 357289 nonzeros
Presolved model has 15 quadratic constraint(s)
Variable types: 15 continuous, 2251 integer (2193 binary)
Root relaxation presolve removed 0 rows and 29 columns
Root relaxation presolved: 2237 rows, 34821 columns, 359512 nonzeros


Root relaxation: objective 7.000000e+00, 681 iterations, 0.31 seconds (0.56 work units)

    Nodes    |    Current Node    |     Objective Bounds      |     Work
 Expl Unexpl |  Obj  Depth IntInf | Incumbent    BestBd   Gap | It/Node Time

H    0     0                    4775761.0000    7.00000   100%     -    4s
*    0     0               0    4775761.0000    7.00000   100%     -    4s
     0     0    7.00000    0   53 4775761.00    7.00000   100%     -    4s
H    0     0                    3898961.0000    7.00000   100%     -    4s
H    0     0                    6984.0000000    7.00000   100%     -    4s
H    0     0                    6879.0000000    7.00000   100%     -    4s
H    0     0                    6632.0000000    7.00000   100%     -    4s
H    0     0                    2147.0000000    7.00000   100%     -    6s
H    0     0                    1259.0000000    7.00000  99.4%     -    6s
H    0     0                    1182.0000000    7.00000  99.4%     -    6s
H    0     0                    1126.0000000    7.00000  99.4%     -    6s
H    0     0                    1116.0000000    7.00000  99.4%     -    6s
H    0     0                    1101.0000000    7.00000  99.4%     -    6s
H    0     0                    1086.0000000    7.00000  99.4%     -    6s
     0     0    7.00000    0    5 1086.00000    7.00000  99.4%     -    6s
H    0     0                     634.0000000    7.00000  98.9%     -    8s
H    0     0                     626.0000000    7.00000  98.9%     -    8s
H    0     0                     606.0000000    7.00000  98.8%     -    8s
H    0     0                     488.0000000    7.00000  98.6%     -    8s
H    0     0                     478.0000000    7.00000  98.5%     -    8s
H    0     0                     454.0000000    7.00000  98.5%     -    8s
H    0     0                     395.0000000    7.00000  98.2%     -    9s
H    0     0                     391.0000000    7.00000  98.2%     -    9s
H    0     0                     371.0000000    7.00000  98.1%     -    9s
     0     0    7.00000    0   16  371.00000    7.00000  98.1%     -    9s
H    0     0                     367.0000000    7.00000  98.1%     -    9s
H    0     0                     185.0000000    7.00000  96.2%     -   10s
H    0     0                     182.0000000    7.00000  96.2%     -   10s
H    0     0                     158.0000000    7.00000  95.6%     -   10s
H    0     0                     137.0000000    7.00000  94.9%     -   10s
H    0     0                     134.0000000    7.00000  94.8%     -   10s
H    0     0                     128.0000000    7.00000  94.5%     -   10s
H    0     0                     127.0000000    7.00000  94.5%     -   12s
H    0     0                     111.0000000    7.00000  93.7%     -   12s
H    0     0                     102.0000000    7.00000  93.1%     -   12s
     0     0    7.00000    0   21  102.00000    7.00000  93.1%     -   12s
     0     0    8.00000    0   38  102.00000    8.00000  92.2%     -   13s
     0     0    8.50000    0   23  102.00000    8.50000  91.7%     -   16s
     0     0    8.50000    0   27  102.00000    8.50000  91.7%     -   16s
H    0     0                      87.0000000    8.50000  90.2%     -   17s
     0     0    8.50000    0   17   87.00000    8.50000  90.2%     -   18s
H    0     0                      79.0000000    8.50000  89.2%     -   18s
     0     0    8.50000    0   27   79.00000    8.50000  89.2%     -   18s
     0     0    9.00000    0   21   79.00000    9.00000  88.6%     -   20s
     0     0    9.00000    0   39   79.00000    9.00000  88.6%     -   21s
     0     0    9.00000    0   33   79.00000    9.00000  88.6%     -   23s
H    0     0                      63.0000000    9.00000  85.7%     -   23s
     0     0    9.00000    0   32   63.00000    9.00000  85.7%     -   23s
     0     0    9.00000    0   30   63.00000    9.00000  85.7%     -   26s
     0     0    9.00000    0   42   63.00000    9.00000  85.7%     -   26s
H    0     0                      61.0000000    9.00000  85.2%     -   29s
H    0     0                      58.0000000    9.00000  84.5%     -   29s
H    0     0                      42.0000000    9.00000  78.6%     -   29s
     0     0    9.32143    0   28   42.00000    9.32143  77.8%     -   30s
H    0     0                      41.0000000    9.32143  77.3%     -   30s
     0     0    9.50000    0   32   41.00000    9.50000  76.8%     -   30s
     0     0    9.50000    0   30   41.00000    9.50000  76.8%     -   32s
     0     0    9.50000    0   42   41.00000    9.50000  76.8%     -   32s
     0     0    9.66667    0   58   41.00000    9.66667  76.4%     -   35s
     0     0    9.66667    0   58   41.00000    9.66667  76.4%     -   35s
H    0     0                      40.0000000    9.66667  75.8%     -   36s
H    0     0                      37.0000000    9.66667  73.9%     -   36s
H    0     0                      30.0000000    9.66667  67.8%     -   36s
H    0     0                      24.0000000    9.66667  59.7%     -   36s
     0     0    9.66667    0   19   24.00000    9.66667  59.7%     -   38s
     0     0    9.66667    0   14   24.00000    9.66667  59.7%     -   39s
     0     0    9.66667    0   34   24.00000    9.66667  59.7%     -   39s
     0     0   10.00000    0   15   24.00000   10.00000  58.3%     -   40s
     0     0   10.00000    0   35   24.00000   10.00000  58.3%     -   40s
     0     0   11.50000    0   41   24.00000   11.50000  52.1%     -   42s
     0     0   11.50000    0   52   24.00000   11.50000  52.1%     -   42s
H    0     0                      23.0000000   12.00000  47.8%     -   44s
     0     0   12.00000    0   42   23.00000   12.00000  47.8%     -   44s

Resetting heuristic parameters to focus on improving solution
(using Heuristics=0.5 and RINS=10)...

     0     0   12.00000    0   83   23.00000   12.00000  47.8%     -   44s
     0     0   12.00000    0   64   23.00000   12.00000  47.8%     -   44s
     0     0   12.00000    0   35   23.00000   12.00000  47.8%     -   46s
     0     2   12.00000    0   35   23.00000   12.00000  47.8%     -   47s
     1     4   12.00000    1   50   23.00000   12.00000  47.8%  1704   47s
H  474   390                      20.0000000   12.48148  37.6%  50.0   49s
   475   391   17.00000   17   58   20.00000   12.48148  37.6%  49.9   51s
   478   393   13.00000    9   52   20.00000   12.48148  37.6%  49.6   55s
   480   394   16.00000   13   57   20.00000   12.48148  37.6%  49.4   60s
   482   396   14.00000    9   44   20.00000   13.00000  35.0%  49.2   66s
   485   398   15.00000    8   72   20.00000   14.00000  30.0%  48.9   71s
   488   400   14.66667   11   56   20.00000   14.66667  26.7%  48.6   75s
   499   416   15.00000   15   46   20.00000   15.00000  25.0%  60.2   80s
  1063   741   16.50000   22   42   20.00000   15.00000  25.0%  57.3   85s
  2224  1327   16.30556   43   22   20.00000   16.00000  20.0%  51.2   90s
  3724  2082   16.00000   31   20   20.00000   16.00000  20.0%  42.5   95s
  5172  3075     cutoff   41        20.00000   16.00000  20.0%  40.5  100s
  6547  4030   16.00000   24   38   20.00000   16.00000  20.0%  41.8  105s
  8125  5023   16.07407   40   47   20.00000   16.00000  20.0%  41.5  110s
  9473  5683 infeasible   51        20.00000   16.81818  15.9%  42.5  116s
 11428  6225     cutoff   51        20.00000   17.00000  15.0%  40.9  121s
 12721  6406   17.00000   50   13   20.00000   17.00000  15.0%  40.2  125s
 14573  7044   18.00000   35   26   20.00000   17.00000  15.0%  40.2  131s
 16533  7932   17.29630   44   30   20.00000   17.00000  15.0%  40.6  136s
 17946  8648     cutoff   26        20.00000   17.00000  15.0%  40.4  142s
 19575  9214   17.00000   46   17   20.00000   17.00000  15.0%  40.2  146s
 21271  9345   17.16667   39   41   20.00000   17.05000  14.7%  40.1  152s
 22594  9085     cutoff   43        20.00000   17.60000  12.0%  40.3  157s
 23489  8966   18.50000   27   45   20.00000   17.66667  11.7%  40.2  160s
*25410   330              33      18.0000000   17.82456  0.97%  39.9  162s

Cutting planes:
  Learned: 7
  Gomory: 230
  Lift-and-project: 77
  Cover: 198
  Implied bound: 9
  Projected implied bound: 3
  Clique: 1
  MIR: 147
  Mixing: 5
  StrongCG: 87
  Flow cover: 931
  GUB cover: 26
  Inf proof: 56
  Zero half: 253
  RLT: 189
  Relax-and-lift: 141

Explored 25578 nodes (1027545 simplex iterations) in 162.65 seconds (170.25 work units)
Thread count was 16 (of 16 available processors)

Solution count 10: 18 20 20 ... 30

Optimal solution found (tolerance 1.00e-04)
Best objective 1.800000000000e+01, best bound 1.800000000000e+01, gap 0.0000%

User-callback calls 83284, time in user-callback 0.35 sec
Set parameter TimeLimit to value 1080
Gurobi Optimizer version 12.0.3 build v12.0.3rc0 (linux64 - "Ubuntu 22.04.5 LTS")

CPU model: Intel(R) Xeon(R) W-2145 CPU @ 3.70GHz, instruction set [SSE2|AVX|AVX2|AVX512]
Thread count: 8 physical cores, 16 logical processors, using up to 16 threads

Non-default parameters:
TimeLimit  1080
Heuristics  0.1
MIPFocus  3
Presolve  2
ImproveStartGap  0.5

Optimize a model with 63162 rows, 4343 columns and 312324 nonzeros
Model fingerprint: 0x817fd5b3
Model has 15 quadratic constraints
Variable types: 15 continuous, 4328 integer (4200 binary)
Coefficient statistics:
  Matrix range     [1e+00, 7e+02]
  QMatrix range    [1e+00, 1e+00]
  QLMatrix range   [1e+00, 1e+00]
  Objective range  [5e-01, 5e-01]
  Bounds range     [1e+00, 1e+00]
  RHS range        [1e+00, 2e+03]

MIP start from previous solve produced solution with objective 280 (0.04s)
Loaded MIP start from previous solve with objective 280

Presolve removed 50631 rows and 2403 columns
Presolve time: 1.60s
Presolved: 12531 rows, 1940 columns, 95478 nonzeros
Presolved model has 15 quadratic constraint(s)
Found heuristic solution: objective 14.0000000
Variable types: 15 continuous, 1925 integer (1867 binary)
Root relaxation presolve removed 1 rows and 29 columns
Root relaxation presolved: 12530 rows, 1911 columns, 95449 nonzeros


Root relaxation: objective 6.000000e+00, 110 iterations, 0.08 seconds (0.11 work units)

    Nodes    |    Current Node    |     Objective Bounds      |     Work
 Expl Unexpl |  Obj  Depth IntInf | Incumbent    BestBd   Gap | It/Node Time

     0     0    6.00000    0    9   14.00000    6.00000  57.1%     -    1s
     0     0    6.00000    0   11   14.00000    6.00000  57.1%     -    2s
     0     0    6.00000    0   15   14.00000    6.00000  57.1%     -    2s
     0     0    6.49500    0   26   14.00000    6.49500  53.6%     -    2s
     0     0    6.49500    0   39   14.00000    6.49500  53.6%     -    2s
     0     0    7.00000    0   52   14.00000    7.00000  50.0%     -    3s

Resetting heuristic parameters to focus on improving solution
(using Heuristics=0.5 and RINS=10)...

     0     0    7.00000    0   42   14.00000    7.00000  50.0%     -    4s
     0     0    7.00000    0   59   14.00000    7.00000  50.0%     -    4s
     0     0    7.23833    0   57   14.00000    7.23833  48.3%     -    4s
     0     2    7.23833    0   45   14.00000    7.23833  48.3%     -    5s
     1     4    7.23833    1   43   14.00000    7.23833  48.3%  60.0    5s
   544   384    9.00000   12   19   14.00000    8.36104  40.3%  39.8   10s
   549   388    9.33333   10   69   14.00000    8.36104  40.3%  39.4   15s
   553   390   10.00000   13   86   14.00000    8.55942  38.9%  39.1   20s
   562   401    9.21609   12   73   14.00000    9.21609  34.2%  43.3   25s
  1226   558   11.25000   29   14   14.00000   11.00000  21.4%  50.2   30s
  2630  1080   13.00000   30    4   14.00000   12.00000  14.3%  41.2   35s
  5339  1366   13.00000   25   38   14.00000   12.00000  14.3%  32.7   40s

Cutting planes:
  Learned: 1
  Gomory: 34
  Lift-and-project: 48
  Cover: 50
  Implied bound: 1
  MIR: 106
  Mixing: 1
  StrongCG: 28
  Flow cover: 378
  GUB cover: 1
  Inf proof: 14
  Zero half: 119
  RLT: 97
  Relax-and-lift: 35

Explored 7547 nodes (224624 simplex iterations) in 43.13 seconds (53.36 work units)
Thread count was 16 (of 16 available processors)

Solution count 3: 14 14 280 

Optimal solution found (tolerance 1.00e-04)
Best objective 1.400000000000e+01, best bound 1.400000000000e+01, gap 0.0000%

User-callback calls 28445, time in user-callback 0.12 sec
Set parameter TimeLimit to value 360
Gurobi Optimizer version 12.0.3 build v12.0.3rc0 (linux64 - "Ubuntu 22.04.5 LTS")

CPU model: Intel(R) Xeon(R) W-2145 CPU @ 3.70GHz, instruction set [SSE2|AVX|AVX2|AVX512]
Thread count: 8 physical cores, 16 logical processors, using up to 16 threads

Non-default parameters:
TimeLimit  360
Heuristics  0.1
MIPFocus  3
Presolve  2
ImproveStartGap  0.5

Optimize a model with 63164 rows, 4343 columns and 312899 nonzeros
Model fingerprint: 0x42b6eddb
Model has 15 quadratic constraints
Variable types: 15 continuous, 4328 integer (4200 binary)
Coefficient statistics:
  Matrix range     [5e-01, 7e+02]
  QMatrix range    [1e+00, 1e+00]
  QLMatrix range   [1e+00, 1e+00]
  Objective range  [1e+00, 1e+00]
  Bounds range     [1e+00, 1e+00]
  RHS range        [1e+00, 2e+03]

MIP start from previous solve produced solution with objective 13 (0.03s)
Loaded MIP start from previous solve with objective 13

Presolve removed 53004 rows and 2531 columns
Presolve time: 1.15s
Presolved: 10160 rows, 1812 columns, 73477 nonzeros
Presolved model has 15 quadratic constraint(s)
Variable types: 15 continuous, 1797 integer (1739 binary)

Explored 0 nodes (0 simplex iterations) in 1.22 seconds (2.16 work units)
Thread count was 16 (of 16 available processors)

Solution count 1: 13 

Optimal solution found (tolerance 1.00e-04)
Best objective 1.300000000000e+01, best bound 1.300000000000e+01, gap 0.0000%

User-callback calls 1463, time in user-callback 0.00 sec
